%chk=mip_complex.chk
#p B3LYP/6-31+G(d) Opt

MIP-fluorescein complex optimization

0 1
C    -0.012   1.200   0.000
C     1.315   0.800   0.000
O     2.200   1.750   0.000
H     1.400  -0.100   0.000
O    -1.230   1.750   0.000
C    -2.100   0.800   0.000
H    -1.950  -0.200   0.000
C     0.500   2.500   0.000
H     0.700   3.400   0.000
