%chk=nip_complex.chk
#p B3LYP/6-31+G(d) Opt

NIP-fluorescein complex optimization

0 1
C    -0.002   1.100   0.000
C     1.310   0.900   0.000
O     2.250   1.700   0.000
H     1.500  -0.200   0.000
O    -1.200   1.700   0.000
C    -2.150   0.700   0.000
H    -1.850  -0.300   0.000
C     0.600   2.600   0.000
H     0.900   3.500   0.000
